Grasp exp. instance_n_25_m_5_id_5.lp tipoLifted 0 szPool 5 nIteration 20 alpha 0.2 
Academic license - for non-commercial use only
Read LP format model from file ../input/instancesGenerated/instance_n_25_m_5_id_5.lp
Reading time = 0.00 seconds
: 5 rows, 25 columns, 125 nonzeros
Optimize a model with 5 rows, 25 columns and 125 nonzeros
Variable types: 0 continuous, 25 integer (25 binary)
Coefficient statistics:
  Matrix range     [1e+00, 1e+01]
  Objective range  [1e+00, 1e+01]
  Bounds range     [1e+00, 1e+00]
  RHS range        [5e+01, 7e+01]
Found heuristic solution: objective 66.0000000

Explored 0 nodes (0 simplex iterations) in 0.00 seconds
Thread count was 1 (of 8 available processors)

Solution count 1: 66 
No other solutions better than 0

Solution limit reached
Best objective 6.600000000000e+01, best bound -, gap -
C_1:	 7.00 x_1  = 1.000000 + 8.00 x_2  = 0.000000 + 3.00 x_3  = 0.953878 + 5.00 x_4  = 1.000000 + 2.00 x_5  = 1.000000 + 3.00 x_6  = 1.000000 + 6.00 x_7  = 0.000000 + 4.00 x_8  = 1.000000 + 2.00 x_9  = 0.000000 + 7.00 x_10  = 0.000000 + 3.00 x_11  = 0.000000 + 8.00 x_12  = 0.571279 + 1.00 x_13  = 1.000000 + 2.00 x_14  = 0.000000 + 1.00 x_15  = 0.000000 + 1.00 x_16  = 0.670860 + 5.00 x_17  = 0.716981 + 9.00 x_18  = 0.000000 + 2.00 x_19  = 0.000000 + 1.00 x_20  = 1.000000 + 1.00 x_21  = 1.000000 + 9.00 x_22  = 0.000000 + 6.00 x_23  = 1.000000 + 1.00 x_24  = 1.000000 + 4.00 x_25  = 0.000000 <= 50.00
C_2:	 4.00 x_1  = 1.000000 + 9.00 x_2  = 0.000000 + 8.00 x_3  = 0.953878 + 2.00 x_4  = 1.000000 + 6.00 x_5  = 1.000000 + 3.00 x_6  = 1.000000 + 8.00 x_7  = 0.000000 + 5.00 x_8  = 1.000000 + 5.00 x_9  = 0.000000 + 4.00 x_10  = 0.000000 + 8.00 x_11  = 0.000000 + 10.00 x_12  = 0.571279 + 9.00 x_13  = 1.000000 + 2.00 x_14  = 0.000000 + 1.00 x_15  = 0.000000 + 5.00 x_16  = 0.670860 + 6.00 x_17  = 0.716981 + 10.00 x_18  = 0.000000 + 7.00 x_19  = 0.000000 + 7.00 x_20  = 1.000000 + 2.00 x_21  = 1.000000 + 10.00 x_22  = 0.000000 + 3.00 x_23  = 1.000000 + 10.00 x_24  = 1.000000 + 1.00 x_25  = 0.000000 <= 72.00
C_3:	 3.00 x_1  = 1.000000 + 1.00 x_2  = 0.000000 + 9.00 x_3  = 0.953878 + 9.00 x_4  = 1.000000 + 1.00 x_5  = 1.000000 + 4.00 x_6  = 1.000000 + 4.00 x_7  = 0.000000 + 1.00 x_8  = 1.000000 + 2.00 x_9  = 0.000000 + 5.00 x_10  = 0.000000 + 8.00 x_11  = 0.000000 + 4.00 x_12  = 0.571279 + 4.00 x_13  = 1.000000 + 4.00 x_14  = 0.000000 + 1.00 x_15  = 0.000000 + 7.00 x_16  = 0.670860 + 2.00 x_17  = 0.716981 + 10.00 x_18  = 0.000000 + 5.00 x_19  = 0.000000 + 3.00 x_20  = 1.000000 + 2.00 x_21  = 1.000000 + 1.00 x_22  = 0.000000 + 8.00 x_23  = 1.000000 + 1.00 x_24  = 1.000000 + 7.00 x_25  = 0.000000 <= 53.00
C_4:	 6.00 x_1  = 1.000000 + 2.00 x_2  = 0.000000 + 6.00 x_3  = 0.953878 + 8.00 x_4  = 1.000000 + 3.00 x_5  = 1.000000 + 6.00 x_6  = 1.000000 + 10.00 x_7  = 0.000000 + 5.00 x_8  = 1.000000 + 6.00 x_9  = 0.000000 + 8.00 x_10  = 0.000000 + 7.00 x_11  = 0.000000 + 10.00 x_12  = 0.571279 + 1.00 x_13  = 1.000000 + 7.00 x_14  = 0.000000 + 1.00 x_15  = 0.000000 + 7.00 x_16  = 0.670860 + 4.00 x_17  = 0.716981 + 6.00 x_18  = 0.000000 + 10.00 x_19  = 0.000000 + 8.00 x_20  = 1.000000 + 8.00 x_21  = 1.000000 + 6.00 x_22  = 0.000000 + 1.00 x_23  = 1.000000 + 7.00 x_24  = 1.000000 + 2.00 x_25  = 0.000000 <= 72.00
C_5:	 3.00 x_1  = 1.000000 + 8.00 x_2  = 0.000000 + 2.00 x_3  = 0.953878 + 2.00 x_4  = 1.000000 + 10.00 x_5  = 1.000000 + 1.00 x_6  = 1.000000 + 7.00 x_7  = 0.000000 + 3.00 x_8  = 1.000000 + 6.00 x_9  = 0.000000 + 6.00 x_10  = 0.000000 + 8.00 x_11  = 0.000000 + 4.00 x_12  = 0.571279 + 5.00 x_13  = 1.000000 + 2.00 x_14  = 0.000000 + 1.00 x_15  = 0.000000 + 5.00 x_16  = 0.670860 + 9.00 x_17  = 0.716981 + 2.00 x_18  = 0.000000 + 7.00 x_19  = 0.000000 + 7.00 x_20  = 1.000000 + 4.00 x_21  = 1.000000 + 4.00 x_22  = 0.000000 + 3.00 x_23  = 1.000000 + 10.00 x_24  = 1.000000 + 5.00 x_25  = 0.000000 <= 62.00
Solution initial: 105.818658 
Number Constraints Used in Cover:5
GRASP Method!
Number cuts repeat: 0
value: 105.818658
Number Constraints Used in Cover:7
GRASP Method!
Number cuts repeat: 0
value: 105.818658
Number Constraints Used in Cover:12
GRASP Method!
Number cuts repeat: 0
value: 105.818658
Number Constraints Used in Cover:14
GRASP Method!
Number cuts repeat: 0
value: 105.818658
Number Constraints Used in Cover:17
GRASP Method!
Number cuts repeat: 0
value: 105.818658
Number Constraints Used in Cover:22
GRASP Method!
Number cuts repeat: 0
value: 105.818658
Number Constraints Used in Cover:25
GRASP Method!
Number cuts repeat: 0
value: 105.818658
Number Constraints Used in Cover:27
GRASP Method!
Number cuts repeat: 0
value: 105.818658
Number Constraints Used in Cover:30
GRASP Method!
Number cuts repeat: 0
value: 105.818658
Number Constraints Used in Cover:35
GRASP Method!
Number cuts repeat: 0
value: 105.818658
Number Constraints Used in Cover:38
GRASP Method!
Number cuts repeat: 0
value: 105.818658
Number Constraints Used in Cover:39
GRASP Method!
Number cuts repeat: 0
value: 105.818658
Number Constraints Used in Cover:44
GRASP Method!
Number cuts repeat: 0
value: 105.818658
Number Constraints Used in Cover:48
GRASP Method!
Number cuts repeat: 0
value: 105.818658
Number Constraints Used in Cover:52
GRASP Method!
Number cuts repeat: 0
value: 105.818658
Number Constraints Used in Cover:54
GRASP Method!
Number cuts repeat: 0
value: 105.818658
Number Constraints Used in Cover:54
GRASP Method!
Number cuts repeat: 0
value: 105.818658
Number Constraints Used in Cover:59
GRASP Method!
Number cuts repeat: 0
value: 105.818658
Number Constraints Used in Cover:62
GRASP Method!
Number cuts repeat: 0
value: 105.818658
Number Constraints Used in Cover:62
GRASP Method!
Number cuts repeat: 0
value: 105.818658
Number Constraints Used in Cover:64
GRASP Method!
Number cuts repeat: 0
value: 105.818658
Number Constraints Used in Cover:67
GRASP Method!
Number cuts repeat: 0
value: 105.818658
Number Constraints Used in Cover:71
GRASP Method!
Number cuts repeat: 0
value: 105.818658
Number Constraints Used in Cover:72
GRASP Method!
Number cuts repeat: 0
value: 105.818658
Number Constraints Used in Cover:74
GRASP Method!
Number cuts repeat: 0
value: 105.818658
Number Constraints Used in Cover:78
GRASP Method!
Number cuts repeat: 0
value: 105.818658
Number Constraints Used in Cover:79
GRASP Method!
Number cuts repeat: 0
value: 105.818658
Number Constraints Used in Cover:80
GRASP Method!
Number cuts repeat: 0
value: 105.818658
Number Constraints Used in Cover:84
GRASP Method!
Number cuts repeat: 0
value: 105.818658
Number Constraints Used in Cover:84
GRASP Method!
Number cuts repeat: 0
value: 105.818658
Number Constraints Used in Cover:87
GRASP Method!
Number cuts repeat: 0
value: 105.818658
Number Constraints Used in Cover:89
GRASP Method!
Number cuts repeat: 0
value: 105.818658
Number Constraints Used in Cover:92
GRASP Method!
Number cuts repeat: 0
value: 105.818658
Number Constraints Used in Cover:95
GRASP Method!
Number cuts repeat: 0
value: 105.818658
Number Constraints Used in Cover:100
GRASP Method!
Number cuts repeat: 0
value: 105.818658
Number Constraints Used in Cover:101
GRASP Method!
Number cuts repeat: 0
value: 105.818658
Number Constraints Used in Cover:101
GRASP Method!
Number cuts repeat: 0
value: 105.818658
Number Constraints Used in Cover:104
GRASP Method!
Number cuts repeat: 0
value: 105.818658
Number Constraints Used in Cover:107
GRASP Method!
Number cuts repeat: 0
value: 105.818658
Number Constraints Used in Cover:108
GRASP Method!
Number cuts repeat: 0
value: 105.818658
Number Constraints Used in Cover:113
GRASP Method!
Number cuts repeat: 0
value: 105.818658
Number Constraints Used in Cover:117
GRASP Method!
Number cuts repeat: 0
value: 105.818658
Number Constraints Used in Cover:122
GRASP Method!
Number cuts repeat: 0
value: 105.818658
Number Constraints Used in Cover:125
GRASP Method!
Number cuts repeat: 0
value: 105.818658
Number Constraints Used in Cover:129
GRASP Method!
Number cuts repeat: 0
value: 105.818658
Number Constraints Used in Cover:134
GRASP Method!
Number cuts repeat: 0
value: 105.818658
Number Constraints Used in Cover:136
GRASP Method!
Number cuts repeat: 0
value: 105.818658
Number Constraints Used in Cover:143
GRASP Method!
Number cuts repeat: 0
value: 105.818658
Number Constraints Used in Cover:150
GRASP Method!
Number cuts repeat: 0
value: 105.818658
Number Constraints Used in Cover:157
GRASP Method!
Number cuts repeat: 0
value: 105.818658
Number Constraints Used in Cover:159
GRASP Method!
Number cuts repeat: 0
value: 105.818658
Number Constraints Used in Cover:167
GRASP Method!
Number cuts repeat: 0
value: 105.818658
Number Constraints Used in Cover:169
GRASP Method!
Number cuts repeat: 0
value: 105.818658
Number Constraints Used in Cover:172
GRASP Method!
Number cuts repeat: 0
value: 105.818658
Number Constraints Used in Cover:176
GRASP Method!
Number cuts repeat: 0
value: 105.818658
Number Constraints Used in Cover:179
GRASP Method!
Number cuts repeat: 0
value: 105.818658
Number Constraints Used in Cover:185
GRASP Method!
Number cuts repeat: 0
value: 105.818658
Number Constraints Used in Cover:190
GRASP Method!
Number cuts repeat: 0
value: 105.818658
Number Constraints Used in Cover:196
GRASP Method!
Number cuts repeat: 0
value: 105.818658
Number Constraints Used in Cover:202
GRASP Method!
Number cuts repeat: 0
value: 105.818658
Number Constraints Used in Cover:211
GRASP Method!
Number cuts repeat: 0
value: 105.818658
Number Constraints Used in Cover:220
GRASP Method!
Number cuts repeat: 0
value: 105.818658
Number Constraints Used in Cover:225
GRASP Method!
Number cuts repeat: 0
value: 105.818658
Number Constraints Used in Cover:232
GRASP Method!
Number cuts repeat: 0
value: 105.818658
Number Constraints Used in Cover:240
GRASP Method!
Number cuts repeat: 0
value: 105.818658
Number Constraints Used in Cover:252
GRASP Method!
Number cuts repeat: 0
value: 105.818658
Number Constraints Used in Cover:261
GRASP Method!
Number cuts repeat: 0
value: 105.818658
Number Constraints Used in Cover:272
GRASP Method!
Number cuts repeat: 0
value: 105.818658
Number Constraints Used in Cover:281
GRASP Method!
Number cuts repeat: 0
value: 105.818658
Number Constraints Used in Cover:290
GRASP Method!
Number cuts repeat: 0
value: 105.818658
Number Constraints Used in Cover:300
GRASP Method!
Number cuts repeat: 0
value: 105.818658
Number Constraints Used in Cover:310
GRASP Method!
Number cuts repeat: 0
value: 105.818658
Number Constraints Used in Cover:315
GRASP Method!
Number cuts repeat: 0
value: 105.818658
Number Constraints Used in Cover:322
GRASP Method!
Number cuts repeat: 0
value: 105.818658
Number Constraints Used in Cover:328
GRASP Method!
Number cuts repeat: 0
value: 105.818658
Number Constraints Used in Cover:339
GRASP Method!
Number cuts repeat: 0
value: 105.818658
Number Constraints Used in Cover:347
GRASP Method!
Number cuts repeat: 0
value: 105.818658
Number Constraints Used in Cover:359
GRASP Method!
Number cuts repeat: 0
value: 105.818658
Number Constraints Used in Cover:367
GRASP Method!
Number cuts repeat: 0
value: 105.818658
Number Constraints Used in Cover:375
GRASP Method!
Number cuts repeat: 0
value: 105.818658
Number Constraints Used in Cover:382
GRASP Method!
Number cuts repeat: 0
value: 105.818658
Number Constraints Used in Cover:386
GRASP Method!
Number cuts repeat: 0
value: 105.818658
Number Constraints Used in Cover:395
GRASP Method!
Number cuts repeat: 0
value: 105.818658
Number Constraints Used in Cover:400
GRASP Method!
Number cuts repeat: 0
value: 105.818658
Number Constraints Used in Cover:406
GRASP Method!
Number cuts repeat: 0
value: 105.818658
Number Constraints Used in Cover:415
GRASP Method!
Number cuts repeat: 0
value: 105.818658
Number Constraints Used in Cover:420
GRASP Method!
Number cuts repeat: 0
value: 105.818658
Number Constraints Used in Cover:429
GRASP Method!
Number cuts repeat: 0
value: 105.818658
Number Constraints Used in Cover:436
GRASP Method!
Number cuts repeat: 0
value: 105.818658
Number Constraints Used in Cover:443
GRASP Method!
Number cuts repeat: 0
value: 105.818658
Number Constraints Used in Cover:451
GRASP Method!
Number cuts repeat: 0
value: 105.818658
Number Constraints Used in Cover:457
GRASP Method!
Number cuts repeat: 0
value: 105.818658
Number Constraints Used in Cover:462
GRASP Method!
Number cuts repeat: 0
value: 105.818658
Number Constraints Used in Cover:470
GRASP Method!
Number cuts repeat: 0
value: 105.818658
Number Constraints Used in Cover:481
GRASP Method!
Number cuts repeat: 0
value: 105.818658
Number Constraints Used in Cover:489
GRASP Method!
Number cuts repeat: 0
value: 105.818658
Number Constraints Used in Cover:495
GRASP Method!
Number cuts repeat: 0
value: 105.818658
Number Constraints Used in Cover:506
GRASP Method!
Number cuts repeat: 0
value: 105.818658
Number Constraints Used in Cover:519
GRASP Method!
Number cuts repeat: 0
value: 105.818658
Number Constraints Used in Cover:524
GRASP Method!
Number cuts repeat: 0
value: 105.818658
Number Constraints Used in Cover:528
GRASP Method!
Number cuts repeat: 0
value: 105.818658
Number Constraints Used in Cover:535
GRASP Method!
Number cuts repeat: 0
value: 105.818658
Number Constraints Used in Cover:544
GRASP Method!
Number cuts repeat: 0
value: 105.818658
Number Constraints Used in Cover:554
GRASP Method!
Number cuts repeat: 0
value: 105.818658
Number Constraints Used in Cover:562
GRASP Method!
Number cuts repeat: 0
value: 105.818658
Number Constraints Used in Cover:568
GRASP Method!
Number cuts repeat: 0
value: 105.818658
Number Constraints Used in Cover:575
GRASP Method!
Number cuts repeat: 0
value: 105.818658
Number Constraints Used in Cover:583
GRASP Method!
Number cuts repeat: 0
value: 105.818658
Number Constraints Used in Cover:590
GRASP Method!
Number cuts repeat: 0
value: 105.818658
Number Constraints Used in Cover:592
GRASP Method!
Number cuts repeat: 0
value: 105.818658
Number Constraints Used in Cover:597
GRASP Method!
Number cuts repeat: 0
value: 105.818658
Number Constraints Used in Cover:608
GRASP Method!
Number cuts repeat: 0
value: 105.818658
Number Constraints Used in Cover:614
GRASP Method!
Number cuts repeat: 0
value: 105.818658
Number Constraints Used in Cover:622
GRASP Method!
Number cuts repeat: 0
value: 105.818658
Number Constraints Used in Cover:633
GRASP Method!
Number cuts repeat: 0
value: 105.818658
Number Constraints Used in Cover:645
GRASP Method!
Number cuts repeat: 0
value: 105.818658
Number Constraints Used in Cover:650
GRASP Method!
Number cuts repeat: 0
value: 105.818658
Number Cuts Final: 649
